Au4                                     
   1.00000000000000     
4.3828736578280685 -3.1441917497e-08 -6.15253276e-08
-3.1496570295e-08 4.3828732324292305 1.383139948e-07
-6.4928385326e-08 1.45559254768e-07 4.154382274804696
   Au
     4
Direct
 -0.0000000003027488  0.0000000006940228  0.0000000022901357
  0.0000000016560755  0.4999999987851456  0.5000000014365065
  0.5000000000557402 -0.0000000013338262  0.4999999981675790
  0.4999999985909331  0.5000000018546578 -0.0000000018942212
 
  0.00000000E+00  0.00000000E+00  0.00000000E+00
  0.00000000E+00  0.00000000E+00  0.00000000E+00
  0.00000000E+00  0.00000000E+00  0.00000000E+00
  0.00000000E+00  0.00000000E+00  0.00000000E+00
