Au4                                     
   1.00000000000000     
3.925891570282014 -2.8163613303e-08 -5.8141434581999995e-08
-2.8212567705e-08 3.9258911892375576 1.3070672508599999e-07
-5.8158601074e-08 1.30382460432e-07 3.9258912496904377
   Au
     4
Direct
 -0.0000000003027488  0.0000000006940228  0.0000000022901357
  0.0000000016560755  0.4999999987851456  0.5000000014365065
  0.5000000000557402 -0.0000000013338262  0.4999999981675790
  0.4999999985909331  0.5000000018546578 -0.0000000018942212
 
  0.00000000E+00  0.00000000E+00  0.00000000E+00
  0.00000000E+00  0.00000000E+00  0.00000000E+00
  0.00000000E+00  0.00000000E+00  0.00000000E+00
  0.00000000E+00  0.00000000E+00  0.00000000E+00
