C8                                      
   1.00000000000000     
     3.5736050709821550    0.0119120169032738    0.0119120169032738
     0.0119120169032738    3.5736050709821550    0.0119120169032738
     0.0119120169032738    0.0119120169032738    3.5736050709821550
   C 
     8
Direct
  0.2499460667215993  0.2499460667215993  0.2499460667215993
  0.0000539332784007  0.0000539332784007  0.0000539332784007
  0.2499460667215993  0.7499460667215992  0.7499460667215992
  0.0000539332784007  0.5000539332784008  0.5000539332784008
  0.7499460667215992  0.2499460667215993  0.7499460667215992
  0.5000539332784008  0.0000539332784007  0.5000539332784008
  0.7499460667215992  0.7499460667215992  0.2499460667215993
  0.5000539332784008  0.5000539332784008  0.0000539332784007
 
  0.00000000E+00  0.00000000E+00  0.00000000E+00
  0.00000000E+00  0.00000000E+00  0.00000000E+00
  0.00000000E+00  0.00000000E+00  0.00000000E+00
  0.00000000E+00  0.00000000E+00  0.00000000E+00
  0.00000000E+00  0.00000000E+00  0.00000000E+00
  0.00000000E+00  0.00000000E+00  0.00000000E+00
  0.00000000E+00  0.00000000E+00  0.00000000E+00
  0.00000000E+00  0.00000000E+00  0.00000000E+00
