graphene                                
   2.46000000000000     
     0.5000377596502619   -0.8660929846018430    0.0000000000000000
     0.5000377596502619    0.8660929846018430    0.0000000000000000
     0.0000000000000000    0.0000000000000000   12.3099161555221404
   C 
     2
Direct
  0.0000026218347600  0.9999973781652400  0.5000000000000000
  0.6666673781652435  0.3333326218347565  0.5000000000000000
 
  0.00000000E+00  0.00000000E+00  0.00000000E+00
  0.00000000E+00  0.00000000E+00  0.00000000E+00
