graphene                                
   2.45999999999999996     
0.5000377596502619 -0.866092984601843 0.0
0.5000377596502619 0.866092984601843 0.0
0.0 0.0 12.30991615552214
   C 
     2
Direct
  0.0000026218347600  0.9999973781652400  0.5000000000000000
  0.6666673781652435  0.3333326218347565  0.5000000000000000

  0.00000000E+00  0.00000000E+00  0.00000000E+00
  0.00000000E+00  0.00000000E+00  0.00000000E+00
