Au4                                     
   1.00000000000000     
     3.8116460483955006   -0.0000000273440373   -0.0000000564494881
    -0.0000000273915671    3.8116456784396391    0.0000001269030902
    -0.0000000564661550    0.0000001265882618    3.8116457371333090
   Au
     4
Direct
  0.9999999996972520  0.0000000006940226  0.0000000022901361
  0.0000000016560762  0.4999999987851425  0.5000000014365042
  0.5000000000557421  0.9999999986661763  0.4999999981675813
  0.4999999985909298  0.5000000018546586  0.9999999981057783
 
  0.00000000E+00  0.00000000E+00  0.00000000E+00
  0.00000000E+00  0.00000000E+00  0.00000000E+00
  0.00000000E+00  0.00000000E+00  0.00000000E+00
  0.00000000E+00  0.00000000E+00  0.00000000E+00
