graphene                                
   2.46000000000000     
     0.5031584427671555   -0.8698258002019330    0.0000000000000000
     0.5002618107116309    0.8681534331128020    0.0000000000000000
     0.0000000000000000    0.0000000000000000   12.3099161555221404
   C 
     2
Direct
  0.0001815713881148  0.0001249830621036  0.5000000000000000
  0.6664884286118886  0.3332050169378930  0.5000000000000000
 
  0.00000000E+00  0.00000000E+00  0.00000000E+00
  0.00000000E+00  0.00000000E+00  0.00000000E+00
