Au4                                     
   1.00000000000000     
     4.1899916078897999   -0.0000000300582177   -0.0000000620526876
    -0.0000000301104653    4.1899912012119671    0.0000001394995433
    -0.0000000620710089    0.0000001391534650    4.1899912657315941
   Au
     4
Direct
  0.9999999996972520  0.0000000006940226  0.0000000022901361
  0.0000000016560762  0.4999999987851425  0.5000000014365042
  0.5000000000557421  0.9999999986661763  0.4999999981675813
  0.4999999985909298  0.5000000018546586  0.9999999981057783
 
  0.00000000E+00  0.00000000E+00  0.00000000E+00
  0.00000000E+00  0.00000000E+00  0.00000000E+00
  0.00000000E+00  0.00000000E+00  0.00000000E+00
  0.00000000E+00  0.00000000E+00  0.00000000E+00
