Au4                                     
   1.00000000000000     
4.1899916078898 -3.0058217674857146e-08 -6.205268755085714e-08
-3.011046530571429e-08 4.189991201211967 1.3949954332685716e-07
-6.207100885600001e-08 1.3915346495085715e-07 4.189991265731594
   Au
     4
Direct
 -0.0000000003027488  0.0000000006940228  0.0000000022901357
  0.0000000016560755  0.4999999987851456  0.5000000014365065
  0.5000000000557402 -0.0000000013338262  0.4999999981675790
  0.4999999985909331  0.5000000018546578 -0.0000000018942212
 
  0.00000000E+00  0.00000000E+00  0.00000000E+00
  0.00000000E+00  0.00000000E+00  0.00000000E+00
  0.00000000E+00  0.00000000E+00  0.00000000E+00
  0.00000000E+00  0.00000000E+00  0.00000000E+00
