Au4                                     
   1.00000000000000     
4.040137092168528 -2.89831893515e-08 -5.9833381091e-08
-2.9033568352500005e-08 4.040136700035476 1.34510359943e-07
-5.9851047137e-08 1.34176659016e-07 4.040136762247568
   Au
     4
Direct
 -0.0000000003027488  0.0000000006940228  0.0000000022901357
  0.0000000016560755  0.4999999987851456  0.5000000014365065
  0.5000000000557402 -0.0000000013338262  0.4999999981675790
  0.4999999985909331  0.5000000018546578 -0.0000000018942212
 
  0.00000000E+00  0.00000000E+00  0.00000000E+00
  0.00000000E+00  0.00000000E+00  0.00000000E+00
  0.00000000E+00  0.00000000E+00  0.00000000E+00
  0.00000000E+00  0.00000000E+00  0.00000000E+00
