Au4                                     
   1.00000000000000     
     4.0950342909971127   -0.0000000293770116   -0.0000000606463943
    -0.0000000294280752    4.0950338935357742    0.0000001363380806
    -0.0000000606643004    0.0000001359998453    4.0950339565932010
   Au
     4
Direct
  0.9999999996972520  0.0000000006940226  0.0000000022901361
  0.0000000016560762  0.4999999987851425  0.5000000014365042
  0.5000000000557421  0.9999999986661763  0.4999999981675813
  0.4999999985909298  0.5000000018546586  0.9999999981057783
 
  0.00000000E+00  0.00000000E+00  0.00000000E+00
  0.00000000E+00  0.00000000E+00  0.00000000E+00
  0.00000000E+00  0.00000000E+00  0.00000000E+00
  0.00000000E+00  0.00000000E+00  0.00000000E+00
