Au4                                     
   1.00000000000000     
4.095034290997113 -2.937701160857143e-08 -6.064639434857142e-08
-2.942807515714286e-08 4.095033893535774 1.3633808058857144e-07
-6.066430044000001e-08 1.3599984534857142e-07 4.095033956593201
   Au
     4
Direct
 -0.0000000003027488  0.0000000006940228  0.0000000022901357
  0.0000000016560755  0.4999999987851456  0.5000000014365065
  0.5000000000557402 -0.0000000013338262  0.4999999981675790
  0.4999999985909331  0.5000000018546578 -0.0000000018942212
 
  0.00000000E+00  0.00000000E+00  0.00000000E+00
  0.00000000E+00  0.00000000E+00  0.00000000E+00
  0.00000000E+00  0.00000000E+00  0.00000000E+00
  0.00000000E+00  0.00000000E+00  0.00000000E+00
