Au4                                     
   1.00000000000000     
4.497119179714582 -3.22614935455e-08 -6.660116712699999e-08
-3.2317570942500006e-08 4.4971187432271496 1.49724899371e-07
-6.662083138900001e-08 1.49353453352e-07 4.497118812476084
   Au
     4
Direct
 -0.0000000003027488  0.0000000006940228  0.0000000022901357
  0.0000000016560755  0.4999999987851456  0.5000000014365065
  0.5000000000557402 -0.0000000013338262  0.4999999981675790
  0.4999999985909331  0.5000000018546578 -0.0000000018942212
 
  0.00000000E+00  0.00000000E+00  0.00000000E+00
  0.00000000E+00  0.00000000E+00  0.00000000E+00
  0.00000000E+00  0.00000000E+00  0.00000000E+00
  0.00000000E+00  0.00000000E+00  0.00000000E+00
