C8                                      
   1.00000000000000     
     3.5736050709821550   -0.0178680253549108   -0.0178680253549108
    -0.0178680253549108    3.5736050709821550   -0.0178680253549108
    -0.0178680253549108   -0.0178680253549108    3.5736050709821550
   C 
     8
Direct
  0.2501243134044998  0.2501243134044998  0.2501243134044998
 -0.0001243134044997 -0.0001243134044997 -0.0001243134044997
  0.2501243134044998  0.7501243134044997  0.7501243134044997
 -0.0001243134044997  0.4998756865955002  0.4998756865955002
  0.7501243134044997  0.2501243134044998  0.7501243134044997
  0.4998756865955002 -0.0001243134044997  0.4998756865955002
  0.7501243134044997  0.7501243134044997  0.2501243134044998
  0.4998756865955002  0.4998756865955002 -0.0001243134044997
 
  0.00000000E+00  0.00000000E+00  0.00000000E+00
  0.00000000E+00  0.00000000E+00  0.00000000E+00
  0.00000000E+00  0.00000000E+00  0.00000000E+00
  0.00000000E+00  0.00000000E+00  0.00000000E+00
  0.00000000E+00  0.00000000E+00  0.00000000E+00
  0.00000000E+00  0.00000000E+00  0.00000000E+00
  0.00000000E+00  0.00000000E+00  0.00000000E+00
  0.00000000E+00  0.00000000E+00  0.00000000E+00
