Au4                                     
   1.00000000000000     
     3.6974005265089871   -0.0000000265244612   -0.0000000547575416
    -0.0000000265705664    3.6974001676417210    0.0000001230994554
    -0.0000000547737089    0.0000001227940633    3.6974002245761799
   Au
     4
Direct
  0.9999999996972520  0.0000000006940226  0.0000000022901361
  0.0000000016560762  0.4999999987851425  0.5000000014365042
  0.5000000000557421  0.9999999986661763  0.4999999981675813
  0.4999999985909298  0.5000000018546586  0.9999999981057783
 
  0.00000000E+00  0.00000000E+00  0.00000000E+00
  0.00000000E+00  0.00000000E+00  0.00000000E+00
  0.00000000E+00  0.00000000E+00  0.00000000E+00
  0.00000000E+00  0.00000000E+00  0.00000000E+00
