Au4                                     
   1.00000000000000     
3.697400526508987 -2.6524461206000002e-08 -5.4757541563999994e-08
-2.6570566410000002e-08 3.697400167641721 1.23099455372e-07
-5.4773708948e-08 1.22794063264e-07 3.69740022457618
   Au
     4
Direct
 -0.0000000003027488  0.0000000006940228  0.0000000022901357
  0.0000000016560755  0.4999999987851456  0.5000000014365065
  0.5000000000557402 -0.0000000013338262  0.4999999981675790
  0.4999999985909331  0.5000000018546578 -0.0000000018942212
 
  0.00000000E+00  0.00000000E+00  0.00000000E+00
  0.00000000E+00  0.00000000E+00  0.00000000E+00
  0.00000000E+00  0.00000000E+00  0.00000000E+00
  0.00000000E+00  0.00000000E+00  0.00000000E+00
