Au4                                     
   1.00000000000000     
     4.3828736578280685   -0.0000000314419175   -0.0000000649092206
    -0.0000000314965703    4.3828732324292305    0.0000001459212645
    -0.0000000649283853    0.0000001455592548    4.3828732999189546
   Au
     4
Direct
  0.9999999996972520  0.0000000006940226  0.0000000022901361
  0.0000000016560762  0.4999999987851425  0.5000000014365042
  0.5000000000557421  0.9999999986661763  0.4999999981675813
  0.4999999985909298  0.5000000018546586  0.9999999981057783
 
  0.00000000E+00  0.00000000E+00  0.00000000E+00
  0.00000000E+00  0.00000000E+00  0.00000000E+00
  0.00000000E+00  0.00000000E+00  0.00000000E+00
  0.00000000E+00  0.00000000E+00  0.00000000E+00
