Au4                                     
   1.00000000000000     
     4.1187736202202840   -0.0000000295473131   -0.0000000609979676
    -0.0000000295986727    4.1187732204548224    0.0000001371284463
    -0.0000000610159775    0.0000001367882502    4.1187732838777986
   Au
     4
Direct
  0.9999999996972520  0.0000000006940226  0.0000000022901361
  0.0000000016560762  0.4999999987851425  0.5000000014365042
  0.5000000000557421  0.9999999986661763  0.4999999981675813
  0.4999999985909298  0.5000000018546586  0.9999999981057783
 
  0.00000000E+00  0.00000000E+00  0.00000000E+00
  0.00000000E+00  0.00000000E+00  0.00000000E+00
  0.00000000E+00  0.00000000E+00  0.00000000E+00
  0.00000000E+00  0.00000000E+00  0.00000000E+00
