Au4                                     
   1.00000000000000     
4.118773620220284 -2.9547313125142858e-08 -6.099796764914285e-08
-2.9598672694285716e-08 4.118773220454822 1.3712844627314286e-07
-6.1015977544e-08 1.3678825024914286e-07 4.118773283877799
   Au
     4
Direct
 -0.0000000003027488  0.0000000006940228  0.0000000022901357
  0.0000000016560755  0.4999999987851456  0.5000000014365065
  0.5000000000557402 -0.0000000013338262  0.4999999981675790
  0.4999999985909331  0.5000000018546578 -0.0000000018942212
 
  0.00000000E+00  0.00000000E+00  0.00000000E+00
  0.00000000E+00  0.00000000E+00  0.00000000E+00
  0.00000000E+00  0.00000000E+00  0.00000000E+00
  0.00000000E+00  0.00000000E+00  0.00000000E+00
