Au4                                     
   1.00000000000000     
3.697400526508987 -2.3034979364000002e-08 -5.8247023405999994e-08
-2.6570566410000002e-08 4.1543821956188545 -0.4569819048776786
-5.4773708948e-08 -0.456981912257659 4.154382259627902
   Au
     4
Direct
 -0.0000000003027488  0.0000000006940228  0.0000000022901357
  0.0000000016560755  0.4999999987851456  0.5000000014365065
  0.5000000000557402 -0.0000000013338262  0.4999999981675790
  0.4999999985909331  0.5000000018546578 -0.0000000018942212
 
  0.00000000E+00  0.00000000E+00  0.00000000E+00
  0.00000000E+00  0.00000000E+00  0.00000000E+00
  0.00000000E+00  0.00000000E+00  0.00000000E+00
  0.00000000E+00  0.00000000E+00  0.00000000E+00
