Au4                                     
   1.00000000000000     
     3.9258915702820141   -0.0000000264188724   -0.0000000598861755
    -0.0000000282125677    4.1543822032261248   -0.2284908832818419
    -0.0000000581586011   -0.2284908871434007    4.1543822672162989
   Au
     4
Direct
  0.9999999996972520  0.0000000006940226  0.0000000022901361
  0.0000000016560762  0.4999999987851425  0.5000000014365042
  0.5000000000557421  0.9999999986661763  0.4999999981675813
  0.4999999985909298  0.5000000018546586  0.9999999981057783
 
  0.00000000E+00  0.00000000E+00  0.00000000E+00
  0.00000000E+00  0.00000000E+00  0.00000000E+00
  0.00000000E+00  0.00000000E+00  0.00000000E+00
  0.00000000E+00  0.00000000E+00  0.00000000E+00
