Au4                                     
   1.00000000000000     
3.925891570282014 -2.6418872382e-08 -5.988617550299999e-08
-2.8212567705e-08 4.154382203226125 -0.2284908832818419
-5.8158601074e-08 -0.2284908871434007 4.154382267216299
   Au
     4
Direct
 -0.0000000003027488  0.0000000006940228  0.0000000022901357
  0.0000000016560755  0.4999999987851456  0.5000000014365065
  0.5000000000557402 -0.0000000013338262  0.4999999981675790
  0.4999999985909331  0.5000000018546578 -0.0000000018942212
 
  0.00000000E+00  0.00000000E+00  0.00000000E+00
  0.00000000E+00  0.00000000E+00  0.00000000E+00
  0.00000000E+00  0.00000000E+00  0.00000000E+00
  0.00000000E+00  0.00000000E+00  0.00000000E+00
