Au4                                     
   1.00000000000000     
     4.2018612725013842   -0.0000000301433684   -0.0000000622284742
    -0.0000000301957641    4.2018608646714899    0.0000001398947262
    -0.0000000622468474    0.0000001395476674    4.2018609293738924
   Au
     4
Direct
  0.9999999996972520  0.0000000006940226  0.0000000022901361
  0.0000000016560762  0.4999999987851425  0.5000000014365042
  0.5000000000557421  0.9999999986661763  0.4999999981675813
  0.4999999985909298  0.5000000018546586  0.9999999981057783
 
  0.00000000E+00  0.00000000E+00  0.00000000E+00
  0.00000000E+00  0.00000000E+00  0.00000000E+00
  0.00000000E+00  0.00000000E+00  0.00000000E+00
  0.00000000E+00  0.00000000E+00  0.00000000E+00
