Au4                                     
   1.00000000000000     
4.201861272501384 -3.0143368433142856e-08 -6.222847420114284e-08
-3.0195764074285715e-08 4.20186086467149 1.3989472616914285e-07
-6.2246847408e-08 1.3954766740114285e-07 4.201860929373892
   Au
     4
Direct
 -0.0000000003027488  0.0000000006940228  0.0000000022901357
  0.0000000016560755  0.4999999987851456  0.5000000014365065
  0.5000000000557402 -0.0000000013338262  0.4999999981675790
  0.4999999985909331  0.5000000018546578 -0.0000000018942212
 
  0.00000000E+00  0.00000000E+00  0.00000000E+00
  0.00000000E+00  0.00000000E+00  0.00000000E+00
  0.00000000E+00  0.00000000E+00  0.00000000E+00
  0.00000000E+00  0.00000000E+00  0.00000000E+00
