Au4                                     
   1.00000000000000     
     4.1662522786666276   -0.0000000298879162   -0.0000000617011143
    -0.0000000299398678    4.1662518742929189    0.0000001387091776
    -0.0000000617193318    0.0000001383650601    4.1662519384469956
   Au
     4
Direct
  0.9999999996972520  0.0000000006940226  0.0000000022901361
  0.0000000016560762  0.4999999987851425  0.5000000014365042
  0.5000000000557421  0.9999999986661763  0.4999999981675813
  0.4999999985909298  0.5000000018546586  0.9999999981057783
 
  0.00000000E+00  0.00000000E+00  0.00000000E+00
  0.00000000E+00  0.00000000E+00  0.00000000E+00
  0.00000000E+00  0.00000000E+00  0.00000000E+00
  0.00000000E+00  0.00000000E+00  0.00000000E+00
