Au4                                     
   1.00000000000000     
4.166252278666628 -2.988791615828572e-08 -6.170111425028571e-08
-2.9939867768571434e-08 4.166251874292919 1.3870917764228572e-07
-6.1719331752e-08 1.3836506005028571e-07 4.166251938446996
   Au
     4
Direct
 -0.0000000003027488  0.0000000006940228  0.0000000022901357
  0.0000000016560755  0.4999999987851456  0.5000000014365065
  0.5000000000557402 -0.0000000013338262  0.4999999981675790
  0.4999999985909331  0.5000000018546578 -0.0000000018942212
 
  0.00000000E+00  0.00000000E+00  0.00000000E+00
  0.00000000E+00  0.00000000E+00  0.00000000E+00
  0.00000000E+00  0.00000000E+00  0.00000000E+00
  0.00000000E+00  0.00000000E+00  0.00000000E+00
