Au4                                     
   1.00000000000000     
     4.6113647016010963   -0.0000000330810696   -0.0000000682931136
    -0.0000000331385716    4.6113642540250677    0.0000001535285342
    -0.0000000683132775    0.0000001531476519    4.6113643250332137
   Au
     4
Direct
  0.9999999996972520  0.0000000006940226  0.0000000022901361
  0.0000000016560762  0.4999999987851425  0.5000000014365042
  0.5000000000557421  0.9999999986661763  0.4999999981675813
  0.4999999985909298  0.5000000018546586  0.9999999981057783
 
  0.00000000E+00  0.00000000E+00  0.00000000E+00
  0.00000000E+00  0.00000000E+00  0.00000000E+00
  0.00000000E+00  0.00000000E+00  0.00000000E+00
  0.00000000E+00  0.00000000E+00  0.00000000E+00
