Au4                                     
   1.00000000000000     
4.611364701601096 -3.3081069594e-08 -6.8293113636e-08
-3.313857159000001e-08 4.611364254025068 1.5352853422800002e-07
-6.8313277452e-08 1.5314765193600001e-07 4.611364325033214
   Au
     4
Direct
 -0.0000000003027488  0.0000000006940228  0.0000000022901357
  0.0000000016560755  0.4999999987851456  0.5000000014365065
  0.5000000000557402 -0.0000000013338262  0.4999999981675790
  0.4999999985909331  0.5000000018546578 -0.0000000018942212
 
  0.00000000E+00  0.00000000E+00  0.00000000E+00
  0.00000000E+00  0.00000000E+00  0.00000000E+00
  0.00000000E+00  0.00000000E+00  0.00000000E+00
  0.00000000E+00  0.00000000E+00  0.00000000E+00
