Au4                                     
   1.00000000000000     
     4.2374702663361425   -0.0000000303988207   -0.0000000627558342
    -0.0000000304516604    4.2374698550500627    0.0000001410802747
    -0.0000000627743631    0.0000001407302748    4.2374699203007902
   Au
     4
Direct
  0.9999999996972520  0.0000000006940226  0.0000000022901361
  0.0000000016560762  0.4999999987851425  0.5000000014365042
  0.5000000000557421  0.9999999986661763  0.4999999981675813
  0.4999999985909298  0.5000000018546586  0.9999999981057783
 
  0.00000000E+00  0.00000000E+00  0.00000000E+00
  0.00000000E+00  0.00000000E+00  0.00000000E+00
  0.00000000E+00  0.00000000E+00  0.00000000E+00
  0.00000000E+00  0.00000000E+00  0.00000000E+00
