Au4                                     
   1.00000000000000     
4.2374702663361425 -3.0398820708e-08 -6.2755834152e-08
-3.045166038e-08 4.237469855050063 1.41080274696e-07
-6.2774363064e-08 1.4073027475199998e-07 4.23746992030079
   Au
     4
Direct
 -0.0000000003027488  0.0000000006940228  0.0000000022901357
  0.0000000016560755  0.4999999987851456  0.5000000014365065
  0.5000000000557402 -0.0000000013338262  0.4999999981675790
  0.4999999985909331  0.5000000018546578 -0.0000000018942212
 
  0.00000000E+00  0.00000000E+00  0.00000000E+00
  0.00000000E+00  0.00000000E+00  0.00000000E+00
  0.00000000E+00  0.00000000E+00  0.00000000E+00
  0.00000000E+00  0.00000000E+00  0.00000000E+00
