Au4                                     
   1.00000000000000     
     3.8116460508542289   -0.3427365954623063   -0.0000000615253276
    -0.3427365597853221    4.1543822132963966    0.0000001383139948
    -0.0000000678487508    0.0000001430481958    4.1543822748046964
   Au
     4
Direct
  0.9999999996972520  0.0000000006940226  0.0000000022901361
  0.0000000016560762  0.4999999987851425  0.5000000014365042
  0.5000000000557421  0.9999999986661763  0.4999999981675813
  0.4999999985909298  0.5000000018546586  0.9999999981057783
 
  0.00000000E+00  0.00000000E+00  0.00000000E+00
  0.00000000E+00  0.00000000E+00  0.00000000E+00
  0.00000000E+00  0.00000000E+00  0.00000000E+00
  0.00000000E+00  0.00000000E+00  0.00000000E+00
