Au4                                     
   1.00000000000000     
3.811646050854229 -0.34273659546230634 -6.15253276e-08
-0.3427365597853221 4.154382213296397 1.383139948e-07
-6.784875076300001e-08 1.4304819578899998e-07 4.154382274804696
   Au
     4
Direct
 -0.0000000003027488  0.0000000006940228  0.0000000022901357
  0.0000000016560755  0.4999999987851456  0.5000000014365065
  0.5000000000557402 -0.0000000013338262  0.4999999981675790
  0.4999999985909331  0.5000000018546578 -0.0000000018942212
 
  0.00000000E+00  0.00000000E+00  0.00000000E+00
  0.00000000E+00  0.00000000E+00  0.00000000E+00
  0.00000000E+00  0.00000000E+00  0.00000000E+00
  0.00000000E+00  0.00000000E+00  0.00000000E+00
