Au4                                     
   1.00000000000000     
     4.1543826190780866   -0.2284910701918997   -0.2284911036592028
    -0.2284910590576754    4.1543822048681260   -0.2284908816398406
    -0.2284910942461487   -0.2284908837585086    4.1543822706011913
   Au
     4
Direct
  0.9999999996972520  0.0000000006940226  0.0000000022901361
  0.0000000016560762  0.4999999987851425  0.5000000014365042
  0.5000000000557421  0.9999999986661763  0.4999999981675813
  0.4999999985909298  0.5000000018546586  0.9999999981057783
 
  0.00000000E+00  0.00000000E+00  0.00000000E+00
  0.00000000E+00  0.00000000E+00  0.00000000E+00
  0.00000000E+00  0.00000000E+00  0.00000000E+00
  0.00000000E+00  0.00000000E+00  0.00000000E+00
