Au4                                     
   1.00000000000000     
4.040137092168528 -2.8110818891e-08 -6.07057515515e-08
-2.9033568352500005e-08 4.15438220702976 -0.11424537248392352
-5.9851047137e-08 -0.11424537458627154 4.154382271010498
   Au
     4
Direct
 -0.0000000003027488  0.0000000006940228  0.0000000022901357
  0.0000000016560755  0.4999999987851456  0.5000000014365065
  0.5000000000557402 -0.0000000013338262  0.4999999981675790
  0.4999999985909331  0.5000000018546578 -0.0000000018942212
 
  0.00000000E+00  0.00000000E+00  0.00000000E+00
  0.00000000E+00  0.00000000E+00  0.00000000E+00
  0.00000000E+00  0.00000000E+00  0.00000000E+00
  0.00000000E+00  0.00000000E+00  0.00000000E+00
