Au4                                     
   1.00000000000000     
     4.1425129494434554   -0.0000000297176146   -0.0000000613495409
    -0.0000000297692702    4.1425125473738698    0.0000001379188120
    -0.0000000613676546    0.0000001375766551    4.1425126111623971
   Au
     4
Direct
  0.9999999996972520  0.0000000006940226  0.0000000022901361
  0.0000000016560762  0.4999999987851425  0.5000000014365042
  0.5000000000557421  0.9999999986661763  0.4999999981675813
  0.4999999985909298  0.5000000018546586  0.9999999981057783
 
  0.00000000E+00  0.00000000E+00  0.00000000E+00
  0.00000000E+00  0.00000000E+00  0.00000000E+00
  0.00000000E+00  0.00000000E+00  0.00000000E+00
  0.00000000E+00  0.00000000E+00  0.00000000E+00
