Au4                                     
   1.00000000000000     
4.142512949443455 -2.9717614641714286e-08 -6.134954094971428e-08
-2.9769270231428572e-08 4.14251254737387 1.3791881195771427e-07
-6.1367654648e-08 1.3757665514971427e-07 4.142512611162397
   Au
     4
Direct
 -0.0000000003027488  0.0000000006940228  0.0000000022901357
  0.0000000016560755  0.4999999987851456  0.5000000014365065
  0.5000000000557402 -0.0000000013338262  0.4999999981675790
  0.4999999985909331  0.5000000018546578 -0.0000000018942212
 
  0.00000000E+00  0.00000000E+00  0.00000000E+00
  0.00000000E+00  0.00000000E+00  0.00000000E+00
  0.00000000E+00  0.00000000E+00  0.00000000E+00
  0.00000000E+00  0.00000000E+00  0.00000000E+00
