Au4                                     
   1.00000000000000     
     4.2137309371129703   -0.0000000302285192   -0.0000000624042609
    -0.0000000302810628    4.2137305281310145    0.0000001402899090
    -0.0000000624226860    0.0000001399418699    4.2137305930161917
   Au
     4
Direct
  0.9999999996972520  0.0000000006940226  0.0000000022901361
  0.0000000016560762  0.4999999987851425  0.5000000014365042
  0.5000000000557421  0.9999999986661763  0.4999999981675813
  0.4999999985909298  0.5000000018546586  0.9999999981057783
 
  0.00000000E+00  0.00000000E+00  0.00000000E+00
  0.00000000E+00  0.00000000E+00  0.00000000E+00
  0.00000000E+00  0.00000000E+00  0.00000000E+00
  0.00000000E+00  0.00000000E+00  0.00000000E+00
