Au4                                     
   1.00000000000000     
4.21373093711297 -3.022851919142857e-08 -6.240426085142857e-08
-3.0281062842857146e-08 4.2137305281310145 1.4028990901142855e-07
-6.242268596e-08 1.3994186985142857e-07 4.213730593016192
   Au
     4
Direct
 -0.0000000003027488  0.0000000006940228  0.0000000022901357
  0.0000000016560755  0.4999999987851456  0.5000000014365065
  0.5000000000557402 -0.0000000013338262  0.4999999981675790
  0.4999999985909331  0.5000000018546578 -0.0000000018942212
 
  0.00000000E+00  0.00000000E+00  0.00000000E+00
  0.00000000E+00  0.00000000E+00  0.00000000E+00
  0.00000000E+00  0.00000000E+00  0.00000000E+00
  0.00000000E+00  0.00000000E+00  0.00000000E+00
