C8                                      
   1.00000000000000     
     3.5736050709821550    0.0059560084516369    0.0059560084516369
     0.0059560084516369    3.5736050709821550    0.0059560084516369
     0.0059560084516369    0.0059560084516369    3.5736050709821550
   C 
     8
Direct
  0.2499700973040195  0.2499700973040195  0.2499700973040195
  0.0000299026959805  0.0000299026959805  0.0000299026959805
  0.2499700973040195  0.7499700973040194  0.7499700973040194
  0.0000299026959805  0.5000299026959806  0.5000299026959806
  0.7499700973040194  0.2499700973040195  0.7499700973040194
  0.5000299026959806  0.0000299026959805  0.5000299026959806
  0.7499700973040194  0.7499700973040194  0.2499700973040195
  0.5000299026959806  0.5000299026959806  0.0000299026959805
 
  0.00000000E+00  0.00000000E+00  0.00000000E+00
  0.00000000E+00  0.00000000E+00  0.00000000E+00
  0.00000000E+00  0.00000000E+00  0.00000000E+00
  0.00000000E+00  0.00000000E+00  0.00000000E+00
  0.00000000E+00  0.00000000E+00  0.00000000E+00
  0.00000000E+00  0.00000000E+00  0.00000000E+00
  0.00000000E+00  0.00000000E+00  0.00000000E+00
  0.00000000E+00  0.00000000E+00  0.00000000E+00
