Au4                                     
   1.00000000000000     
     4.2686281359415554   -0.0000000306223414   -0.0000000632172741
    -0.0000000306755696    4.2686277216313133    0.0000001421176297
    -0.0000000632359393    0.0000001417650562    4.2686277873618259
   Au
     4
Direct
  0.9999999996972520  0.0000000006940226  0.0000000022901361
  0.0000000016560762  0.4999999987851425  0.5000000014365042
  0.5000000000557421  0.9999999986661763  0.4999999981675813
  0.4999999985909298  0.5000000018546586  0.9999999981057783
 
  0.00000000E+00  0.00000000E+00  0.00000000E+00
  0.00000000E+00  0.00000000E+00  0.00000000E+00
  0.00000000E+00  0.00000000E+00  0.00000000E+00
  0.00000000E+00  0.00000000E+00  0.00000000E+00
