Au4                                     
   1.00000000000000     
4.268628135941555 -3.06223414485e-08 -6.3217274109e-08
-3.0675569647500004e-08 4.268627721631313 1.42117629657e-07
-6.323593926300001e-08 1.41765056184e-07 4.268627787361826
   Au
     4
Direct
 -0.0000000003027488  0.0000000006940228  0.0000000022901357
  0.0000000016560755  0.4999999987851456  0.5000000014365065
  0.5000000000557402 -0.0000000013338262  0.4999999981675790
  0.4999999985909331  0.5000000018546578 -0.0000000018942212
 
  0.00000000E+00  0.00000000E+00  0.00000000E+00
  0.00000000E+00  0.00000000E+00  0.00000000E+00
  0.00000000E+00  0.00000000E+00  0.00000000E+00
  0.00000000E+00  0.00000000E+00  0.00000000E+00
