Au4                                     
   1.00000000000000     
     4.0831646263855266   -0.0000000292918609   -0.0000000604706077
    -0.0000000293427764    4.0831642300762505    0.0000001359428977
    -0.0000000604884619    0.0000001356056429    4.0831642929509018
   Au
     4
Direct
  0.9999999996972520  0.0000000006940226  0.0000000022901361
  0.0000000016560762  0.4999999987851425  0.5000000014365042
  0.5000000000557421  0.9999999986661763  0.4999999981675813
  0.4999999985909298  0.5000000018546586  0.9999999981057783
 
  0.00000000E+00  0.00000000E+00  0.00000000E+00
  0.00000000E+00  0.00000000E+00  0.00000000E+00
  0.00000000E+00  0.00000000E+00  0.00000000E+00
  0.00000000E+00  0.00000000E+00  0.00000000E+00
