Au4                                     
   1.00000000000000     
4.083164626385527 -2.9291860850285716e-08 -6.04706076982857e-08
-2.9342776388571433e-08 4.0831642300762505 1.3594289774628572e-07
-6.0488461888e-08 1.3560564289828572e-07 4.083164292950902
   Au
     4
Direct
 -0.0000000003027488  0.0000000006940228  0.0000000022901357
  0.0000000016560755  0.4999999987851456  0.5000000014365065
  0.5000000000557402 -0.0000000013338262  0.4999999981675790
  0.4999999985909331  0.5000000018546578 -0.0000000018942212
 
  0.00000000E+00  0.00000000E+00  0.00000000E+00
  0.00000000E+00  0.00000000E+00  0.00000000E+00
  0.00000000E+00  0.00000000E+00  0.00000000E+00
  0.00000000E+00  0.00000000E+00  0.00000000E+00
