Au4                                     
   1.00000000000000     
     4.2256006017245564   -0.0000000303136699   -0.0000000625800475
    -0.0000000303663616    4.2256001915905381    0.0000001406850919
    -0.0000000625985245    0.0000001403360723    4.2256002566584909
   Au
     4
Direct
  0.9999999996972520  0.0000000006940226  0.0000000022901361
  0.0000000016560762  0.4999999987851425  0.5000000014365042
  0.5000000000557421  0.9999999986661763  0.4999999981675813
  0.4999999985909298  0.5000000018546586  0.9999999981057783
 
  0.00000000E+00  0.00000000E+00  0.00000000E+00
  0.00000000E+00  0.00000000E+00  0.00000000E+00
  0.00000000E+00  0.00000000E+00  0.00000000E+00
  0.00000000E+00  0.00000000E+00  0.00000000E+00
