Au4                                     
   1.00000000000000     
4.225600601724556 -3.0313669949714284e-08 -6.258004750171428e-08
-3.036636161142858e-08 4.225600191590538 1.4068509185371427e-07
-6.259852451200001e-08 1.4033607230171426e-07 4.225600256658491
   Au
     4
Direct
 -0.0000000003027488  0.0000000006940228  0.0000000022901357
  0.0000000016560755  0.4999999987851456  0.5000000014365065
  0.5000000000557402 -0.0000000013338262  0.4999999981675790
  0.4999999985909331  0.5000000018546578 -0.0000000018942212
 
  0.00000000E+00  0.00000000E+00  0.00000000E+00
  0.00000000E+00  0.00000000E+00  0.00000000E+00
  0.00000000E+00  0.00000000E+00  0.00000000E+00
  0.00000000E+00  0.00000000E+00  0.00000000E+00
