Global Parameters
  ISTART =  0            (Read existing wavefunction; if there)
  LREAL  =  F          (Projection operators: automatic)
  PREC   =  High     (Precision level)
  LWAVE  = F        (Write WAVECAR or not)
  LCHARG = F        (Write CHGCAR or not)
  ADDGRID= .TRUE.        (Increase grid; helps GGA convergence)

Electronic Relaxation
  ISMEAR =  0           (Gaussian smearing; metals:1)
  SIGMA  =  0.05         (Smearing value in eV; metals:0.2)
  NELM   =  40           (Max electronic SCF steps)
  NELMIN =  4            (Min electronic SCF steps)
  EDIFF  =  1E-08        (SCF energy convergence; in eV)
  # GGA  =  PS           (PBEsol exchange-correlation)

Ionic Relaxation
  NELMIN =  6            (Min electronic SCF steps)
  NSW    =  100          (Max electronic SCF steps)
  IBRION =  2            (Algorithm: 0-MD; 1-Quasi-New; 2-CG)
  ISIF   =  2            (Stress/relaxation: 2-Ions, 3-Shape/Ions/V, 4-Shape/Ions)
  EDIFFG = -1E-02      (Ionic convergence; eV/AA)
