C8                                      
   1.00000000000000     
     3.5736050709821550   -0.0119120169032738   -0.0119120169032738
    -0.0119120169032738    3.5736050709821550   -0.0119120169032738
    -0.0119120169032738   -0.0119120169032738    3.5736050709821550
   C 
     8
Direct
  0.2500771578037005  0.2500771578037005  0.2500771578037005
 -0.0000771578037005 -0.0000771578037005 -0.0000771578037005
  0.2500771578037005  0.7500771578037005  0.7500771578037005
 -0.0000771578037005  0.4999228421962995  0.4999228421962995
  0.7500771578037005  0.2500771578037005  0.7500771578037005
  0.4999228421962995 -0.0000771578037005  0.4999228421962995
  0.7500771578037005  0.7500771578037005  0.2500771578037005
  0.4999228421962995  0.4999228421962995 -0.0000771578037005
 
  0.00000000E+00  0.00000000E+00  0.00000000E+00
  0.00000000E+00  0.00000000E+00  0.00000000E+00
  0.00000000E+00  0.00000000E+00  0.00000000E+00
  0.00000000E+00  0.00000000E+00  0.00000000E+00
  0.00000000E+00  0.00000000E+00  0.00000000E+00
  0.00000000E+00  0.00000000E+00  0.00000000E+00
  0.00000000E+00  0.00000000E+00  0.00000000E+00
  0.00000000E+00  0.00000000E+00  0.00000000E+00
