C8                                      
   1.00000000000000     
     3.5736050709821550    0.0178680253549108    0.0178680253549108
     0.0178680253549108    3.5736050709821550    0.0178680253549108
     0.0178680253549108    0.0178680253549108    3.5736050709821550
   C 
     8
Direct
  0.2499279786319473  0.2499279786319473  0.2499279786319473
  0.0000720213680527  0.0000720213680527  0.0000720213680527
  0.2499279786319473  0.7499279786319473  0.7499279786319473
  0.0000720213680527  0.5000720213680527  0.5000720213680527
  0.7499279786319473  0.2499279786319473  0.7499279786319473
  0.5000720213680527  0.0000720213680527  0.5000720213680527
  0.7499279786319473  0.7499279786319473  0.2499279786319473
  0.5000720213680527  0.5000720213680527  0.0000720213680527
 
  0.00000000E+00  0.00000000E+00  0.00000000E+00
  0.00000000E+00  0.00000000E+00  0.00000000E+00
  0.00000000E+00  0.00000000E+00  0.00000000E+00
  0.00000000E+00  0.00000000E+00  0.00000000E+00
  0.00000000E+00  0.00000000E+00  0.00000000E+00
  0.00000000E+00  0.00000000E+00  0.00000000E+00
  0.00000000E+00  0.00000000E+00  0.00000000E+00
  0.00000000E+00  0.00000000E+00  0.00000000E+00
