Au4                                     
   1.00000000000000     
     4.0712949617739405   -0.0000000292067101   -0.0000000602948210
    -0.0000000292574776    4.0712945666167260    0.0000001355477149
    -0.0000000603126233    0.0000001352114404    4.0712946293086025
   Au
     4
Direct
  0.9999999996972520  0.0000000006940226  0.0000000022901361
  0.0000000016560762  0.4999999987851425  0.5000000014365042
  0.5000000000557421  0.9999999986661763  0.4999999981675813
  0.4999999985909298  0.5000000018546586  0.9999999981057783
 
  0.00000000E+00  0.00000000E+00  0.00000000E+00
  0.00000000E+00  0.00000000E+00  0.00000000E+00
  0.00000000E+00  0.00000000E+00  0.00000000E+00
  0.00000000E+00  0.00000000E+00  0.00000000E+00
