Au4                                     
   1.00000000000000     
4.0712949617739405 -2.9206710092e-08 -6.029482104799999e-08
-2.925747762e-08 4.071294566616726 1.35547714904e-07
-6.0312623336e-08 1.35211440448e-07 4.0712946293086025
   Au
     4
Direct
 -0.0000000003027488  0.0000000006940228  0.0000000022901357
  0.0000000016560755  0.4999999987851456  0.5000000014365065
  0.5000000000557402 -0.0000000013338262  0.4999999981675790
  0.4999999985909331  0.5000000018546578 -0.0000000018942212
 
  0.00000000E+00  0.00000000E+00  0.00000000E+00
  0.00000000E+00  0.00000000E+00  0.00000000E+00
  0.00000000E+00  0.00000000E+00  0.00000000E+00
  0.00000000E+00  0.00000000E+00  0.00000000E+00
