Au4                                     
   1.00000000000000     
     4.4971191797145824   -0.0000000322614935   -0.0000000615253276
    -0.0000000323175709    4.4971187432271496    0.0000001383139948
    -0.0000000666208314    0.0000001493534534    4.1543822748046964
   Au
     4
Direct
  0.9999999996972520  0.0000000006940226  0.0000000022901361
  0.0000000016560762  0.4999999987851425  0.5000000014365042
  0.5000000000557421  0.9999999986661763  0.4999999981675813
  0.4999999985909298  0.5000000018546586  0.9999999981057783
 
  0.00000000E+00  0.00000000E+00  0.00000000E+00
  0.00000000E+00  0.00000000E+00  0.00000000E+00
  0.00000000E+00  0.00000000E+00  0.00000000E+00
  0.00000000E+00  0.00000000E+00  0.00000000E+00
