cell ralax
ENCUT = 500
IBRION = 2
ISTART = 0 ; ICHARG = 2
ISMEAR = 0 ; SIGMA = 0.1
NSW = 100
ISIF = 2
POTIM = 0.2
EDIFF = 1E-6
EDIFFG = -0.02
PREC = Accurate
LCHARG = .FALSE.
LWAVE = .FALSE.
NCORE=8
ALGO = Fast
#LREAL = Auto
#AMIX = 0.2
#BMIX = 0.0001
#AMIN = 0.01
NELMIN = 4
#SYMPREC = 1E-3
#LELF = .TRUE.
ISYM = 0
#ISPIN = 2
#LNONCOLLINEAR = .TURE.
#MAGMOM = 0 0 1 0 0 1 0 0 1 0 0 1 0 0 1 0 0 1 0 0 1
#LMAXMIX = 4
