Au4                                     
   1.00000000000000     
4.268628135941555 -3.1494711909e-08 -6.234490364849999e-08
-3.0675569647500004e-08 4.154382214637029 0.11424564911191319
-6.323593926300001e-08 0.1142456505279868 4.154382278598895
   Au
     4
Direct
 -0.0000000003027488  0.0000000006940228  0.0000000022901357
  0.0000000016560755  0.4999999987851456  0.5000000014365065
  0.5000000000557402 -0.0000000013338262  0.4999999981675790
  0.4999999985909331  0.5000000018546578 -0.0000000018942212
 
  0.00000000E+00  0.00000000E+00  0.00000000E+00
  0.00000000E+00  0.00000000E+00  0.00000000E+00
  0.00000000E+00  0.00000000E+00  0.00000000E+00
  0.00000000E+00  0.00000000E+00  0.00000000E+00
