graphene                                
   2.46000000000000     
     0.5060550748226801   -0.8714981672910644    0.0000000000000000
     0.4973651786561064    0.8664810660236705    0.0000000000000000
     0.0000000000000000    0.0000000000000000   12.3099161555221404
   C 
     2
Direct
  0.0004792030047015  0.0004371089638768  0.5000000000000000
  0.6661907969953019  0.3328928910361197  0.5000000000000000
 
  0.00000000E+00  0.00000000E+00  0.00000000E+00
  0.00000000E+00  0.00000000E+00  0.00000000E+00
