Au4                                     
   1.00000000000000     
3.8116460483955006 -2.4726925873e-08 -5.9066599454499996e-08
-2.7391567057500003e-08 4.15438219942249 -0.34273639407976025
-5.6466155011000004e-08 -0.3427363997005299 4.154382263422101
   Au
     4
Direct
 -0.0000000003027488  0.0000000006940228  0.0000000022901357
  0.0000000016560755  0.4999999987851456  0.5000000014365065
  0.5000000000557402 -0.0000000013338262  0.4999999981675790
  0.4999999985909331  0.5000000018546578 -0.0000000018942212
 
  0.00000000E+00  0.00000000E+00  0.00000000E+00
  0.00000000E+00  0.00000000E+00  0.00000000E+00
  0.00000000E+00  0.00000000E+00  0.00000000E+00
  0.00000000E+00  0.00000000E+00  0.00000000E+00
