Au4                                     
   1.00000000000000     
4.497119179714582 -3.4878604927e-08 -6.39840557455e-08
-3.2317570942500006e-08 4.1543822222442985 0.3427366707077499
-6.662083138900001e-08 0.3427366756422451 4.154382286187292
   Au
     4
Direct
 -0.0000000003027488  0.0000000006940228  0.0000000022901357
  0.0000000016560755  0.4999999987851456  0.5000000014365065
  0.5000000000557402 -0.0000000013338262  0.4999999981675790
  0.4999999985909331  0.5000000018546578 -0.0000000018942212
 
  0.00000000E+00  0.00000000E+00  0.00000000E+00
  0.00000000E+00  0.00000000E+00  0.00000000E+00
  0.00000000E+00  0.00000000E+00  0.00000000E+00
  0.00000000E+00  0.00000000E+00  0.00000000E+00
