Au4                                     
   1.00000000000000     
     4.1069039556086979   -0.0000000294621624   -0.0000000608221810
    -0.0000000295133739    4.1069035569952979    0.0000001367332634
    -0.0000000608401390    0.0000001363940478    4.1069036202354994
   Au
     4
Direct
  0.9999999996972520  0.0000000006940226  0.0000000022901361
  0.0000000016560762  0.4999999987851425  0.5000000014365042
  0.5000000000557421  0.9999999986661763  0.4999999981675813
  0.4999999985909298  0.5000000018546586  0.9999999981057783
 
  0.00000000E+00  0.00000000E+00  0.00000000E+00
  0.00000000E+00  0.00000000E+00  0.00000000E+00
  0.00000000E+00  0.00000000E+00  0.00000000E+00
  0.00000000E+00  0.00000000E+00  0.00000000E+00
