Au4                                     
   1.00000000000000     
4.106903955608698 -2.946216236685714e-08 -6.082218099885714e-08
-2.951337392571429e-08 4.106903556995298 1.3673326343085714e-07
-6.0840138992e-08 1.3639404779885714e-07 4.106903620235499
   Au
     4
Direct
 -0.0000000003027488  0.0000000006940228  0.0000000022901357
  0.0000000016560755  0.4999999987851456  0.5000000014365065
  0.5000000000557402 -0.0000000013338262  0.4999999981675790
  0.4999999985909331  0.5000000018546578 -0.0000000018942212
 
  0.00000000E+00  0.00000000E+00  0.00000000E+00
  0.00000000E+00  0.00000000E+00  0.00000000E+00
  0.00000000E+00  0.00000000E+00  0.00000000E+00
  0.00000000E+00  0.00000000E+00  0.00000000E+00
