graphene                                
   2.46000000000000     
     0.5046067587949178   -0.8706619837464987    0.0000000000000000
     0.4988134946838686    0.8673172495682363    0.0000000000000000
     0.0000000000000000    0.0000000000000000   12.3099161555221404
   C 
     2
Direct
  0.0003311998077426  0.0002801676682830  0.5000000000000000
  0.6663388001922609  0.3330498323317136  0.5000000000000000
 
  0.00000000E+00  0.00000000E+00  0.00000000E+00
  0.00000000E+00  0.00000000E+00  0.00000000E+00
