Au4                                     
   1.00000000000000     
     4.1543826140550415   -0.0000000298027654   -0.0000000615253276
    -0.0000000298545690    4.1543822108333943    0.0000001383139948
    -0.0000000615434932    0.0000001379708576    4.1543822748046964
   Au
     4
Direct
 -0.0000000003027488  0.0000000006940228  0.0000000022901357
  0.0000000016560755  0.4999999987851456  0.5000000014365065
  0.5000000000557402 -0.0000000013338262  0.4999999981675790
  0.4999999985909331  0.5000000018546578 -0.0000000018942212
 
  0.00000000E+00  0.00000000E+00  0.00000000E+00
  0.00000000E+00  0.00000000E+00  0.00000000E+00
  0.00000000E+00  0.00000000E+00  0.00000000E+00
  0.00000000E+00  0.00000000E+00  0.00000000E+00
