Au4                                     
   1.00000000000000     
4.178121943278214 -2.997306691657143e-08 -6.187690090057142e-08
-3.0025166537142866e-08 4.1781215377524425 1.3910436048457144e-07
-6.189517030400001e-08 1.3875926250057143e-07 4.178121602089295
   Au
     4
Direct
 -0.0000000003027488  0.0000000006940228  0.0000000022901357
  0.0000000016560755  0.4999999987851456  0.5000000014365065
  0.5000000000557402 -0.0000000013338262  0.4999999981675790
  0.4999999985909331  0.5000000018546578 -0.0000000018942212
 
  0.00000000E+00  0.00000000E+00  0.00000000E+00
  0.00000000E+00  0.00000000E+00  0.00000000E+00
  0.00000000E+00  0.00000000E+00  0.00000000E+00
  0.00000000E+00  0.00000000E+00  0.00000000E+00
