Au4                                     
   1.00000000000000     
4.3828736578280685 -3.3186658418e-08 -6.3164479697e-08
-3.1496570295e-08 4.154382218440664 0.22849115990983154
-6.4928385326e-08 0.22849116308511594 4.154382282393094
   Au
     4
Direct
 -0.0000000003027488  0.0000000006940228  0.0000000022901357
  0.0000000016560755  0.4999999987851456  0.5000000014365065
  0.5000000000557402 -0.0000000013338262  0.4999999981675790
  0.4999999985909331  0.5000000018546578 -0.0000000018942212
 
  0.00000000E+00  0.00000000E+00  0.00000000E+00
  0.00000000E+00  0.00000000E+00  0.00000000E+00
  0.00000000E+00  0.00000000E+00  0.00000000E+00
  0.00000000E+00  0.00000000E+00  0.00000000E+00
