graphene                                
   2.46000000000000     
     0.5002618107116309   -0.8681534331128020    0.0000000000000000
     0.5031584427671555    0.8698258002019330    0.0000000000000000
     0.0000000000000000    0.0000000000000000   12.3099161555221404
   C 
     2
Direct
 -0.0001248163273787  0.9998186562336120  0.5000000000000000
  0.6667948163273821  0.3335113437663846  0.5000000000000000
 
  0.00000000E+00  0.00000000E+00  0.00000000E+00
  0.00000000E+00  0.00000000E+00  0.00000000E+00
