Au4                                     
   1.00000000000000     
     4.1306432848318702   -0.0000000296324639   -0.0000000611737543
    -0.0000000296839715    4.1306428839143461    0.0000001375236291
    -0.0000000611918161    0.0000001371824527    4.1306429475200979
   Au
     4
Direct
  0.9999999996972520  0.0000000006940226  0.0000000022901361
  0.0000000016560762  0.4999999987851425  0.5000000014365042
  0.5000000000557421  0.9999999986661763  0.4999999981675813
  0.4999999985909298  0.5000000018546586  0.9999999981057783
 
  0.00000000E+00  0.00000000E+00  0.00000000E+00
  0.00000000E+00  0.00000000E+00  0.00000000E+00
  0.00000000E+00  0.00000000E+00  0.00000000E+00
  0.00000000E+00  0.00000000E+00  0.00000000E+00
