Au4                                     
   1.00000000000000     
4.13064328483187 -2.9632463883428572e-08 -6.117375429942857e-08
-2.9683971462857147e-08 4.130642883914346 1.3752362911542858e-07
-6.1191816096e-08 1.3718245269942858e-07 4.130642947520098
   Au
     4
Direct
 -0.0000000003027488  0.0000000006940228  0.0000000022901357
  0.0000000016560755  0.4999999987851456  0.5000000014365065
  0.5000000000557402 -0.0000000013338262  0.4999999981675790
  0.4999999985909331  0.5000000018546578 -0.0000000018942212
 
  0.00000000E+00  0.00000000E+00  0.00000000E+00
  0.00000000E+00  0.00000000E+00  0.00000000E+00
  0.00000000E+00  0.00000000E+00  0.00000000E+00
  0.00000000E+00  0.00000000E+00  0.00000000E+00
