graphene                                
   2.46000000000000     
     0.4966930254719992   -0.8602997204907940    0.0000000000000000
     0.4966930254719992    0.8602997204907940    0.0000000000000000
     0.0000000000000000    0.0000000000000000   12.3099161555221404
   C 
     2
Direct
  0.0000026218347600  0.9999973781652400  0.5000000000000000
  0.6666673781652435  0.3333326218347565  0.5000000000000000
 
  0.00000000E+00  0.00000000E+00  0.00000000E+00
  0.00000000E+00  0.00000000E+00  0.00000000E+00
