Au4                                     
   1.00000000000000     
     4.1543826241011317   -0.4569821105810339   -0.4569821457930780
    -0.4569820882607818    4.1543821989028569   -0.4569819015936760
    -0.4569821269488041   -0.4569819054878748    4.1543822663976862
   Au
     4
Direct
  0.9999999996972520  0.0000000006940226  0.0000000022901361
  0.0000000016560762  0.4999999987851425  0.5000000014365042
  0.5000000000557421  0.9999999986661763  0.4999999981675813
  0.4999999985909298  0.5000000018546586  0.9999999981057783
 
  0.00000000E+00  0.00000000E+00  0.00000000E+00
  0.00000000E+00  0.00000000E+00  0.00000000E+00
  0.00000000E+00  0.00000000E+00  0.00000000E+00
  0.00000000E+00  0.00000000E+00  0.00000000E+00
