Au4                                     
   1.00000000000000     
     4.6113647016010963   -0.0000000365705514   -0.0000000648036318
    -0.0000000331385716    4.1543822260479342    0.4569821815056682
    -0.0000000683132775    0.4569821881993742    4.1543822899814904
   Au
     4
Direct
  0.9999999996972520  0.0000000006940226  0.0000000022901361
  0.0000000016560762  0.4999999987851425  0.5000000014365042
  0.5000000000557421  0.9999999986661763  0.4999999981675813
  0.4999999985909298  0.5000000018546586  0.9999999981057783
 
  0.00000000E+00  0.00000000E+00  0.00000000E+00
  0.00000000E+00  0.00000000E+00  0.00000000E+00
  0.00000000E+00  0.00000000E+00  0.00000000E+00
  0.00000000E+00  0.00000000E+00  0.00000000E+00
