C8                                      
   1.00000000000000     
     3.5736050709821550   -0.0059560084516369   -0.0059560084516369
    -0.0059560084516369    3.5736050709821550   -0.0059560084516369
    -0.0059560084516369   -0.0059560084516369    3.5736050709821550
   C 
     8
Direct
  0.2500356854016254  0.2500356854016254  0.2500356854016254
 -0.0000356854016253 -0.0000356854016253 -0.0000356854016253
  0.2500356854016254  0.7500356854016254  0.7500356854016254
 -0.0000356854016253  0.4999643145983746  0.4999643145983746
  0.7500356854016254  0.2500356854016254  0.7500356854016254
  0.4999643145983746 -0.0000356854016253  0.4999643145983746
  0.7500356854016254  0.7500356854016254  0.2500356854016254
  0.4999643145983746  0.4999643145983746 -0.0000356854016253
 
  0.00000000E+00  0.00000000E+00  0.00000000E+00
  0.00000000E+00  0.00000000E+00  0.00000000E+00
  0.00000000E+00  0.00000000E+00  0.00000000E+00
  0.00000000E+00  0.00000000E+00  0.00000000E+00
  0.00000000E+00  0.00000000E+00  0.00000000E+00
  0.00000000E+00  0.00000000E+00  0.00000000E+00
  0.00000000E+00  0.00000000E+00  0.00000000E+00
  0.00000000E+00  0.00000000E+00  0.00000000E+00
