Au4                                     
   1.00000000000000     
     4.1543826215896091   -0.3427365903864668   -0.3427366247261404
    -0.3427365736592286    4.1543822018854923   -0.3427363916167583
    -0.3427366105974764   -0.3427363946231917    4.1543822684994387
   Au
     4
Direct
  0.9999999996972520  0.0000000006940226  0.0000000022901361
  0.0000000016560762  0.4999999987851425  0.5000000014365042
  0.5000000000557421  0.9999999986661763  0.4999999981675813
  0.4999999985909298  0.5000000018546586  0.9999999981057783
 
  0.00000000E+00  0.00000000E+00  0.00000000E+00
  0.00000000E+00  0.00000000E+00  0.00000000E+00
  0.00000000E+00  0.00000000E+00  0.00000000E+00
  0.00000000E+00  0.00000000E+00  0.00000000E+00
