Au4                                     
   1.00000000000000     
     4.1543826165665640   -0.1142455499973325   -0.1142455825922652
    -0.1142455444561222    4.1543822078507606   -0.1142453716629229
    -0.1142455778948209   -0.1142453728938255    4.1543822727029438
   Au
     4
Direct
  0.9999999996972520  0.0000000006940226  0.0000000022901361
  0.0000000016560762  0.4999999987851425  0.5000000014365042
  0.5000000000557421  0.9999999986661763  0.4999999981675813
  0.4999999985909298  0.5000000018546586  0.9999999981057783
 
  0.00000000E+00  0.00000000E+00  0.00000000E+00
  0.00000000E+00  0.00000000E+00  0.00000000E+00
  0.00000000E+00  0.00000000E+00  0.00000000E+00
  0.00000000E+00  0.00000000E+00  0.00000000E+00
